73
9
23
39
63
84
104
127
128
139
143
170
254
268
340
356
366
377
410
469
481
525
527
533
565
637
644
656
658
708
734
738
739
757
870
875
913
915
949
985
1021
1034
1052
1074
1111
1125
1190
1193
1221
1269
1302
1309
1325
1339
1387
1451
1452
1470
1485
1491
1508
1523
1529
1547
1588
1593
1637
1638
1666
1716
1721
1797
1824
1827
1
125
